name="r27";
nr_vertices=259;
nr_edges=3019;
neighborhoods=[{1,2,3,4,5,6,7,8,9,10,11,12,23,53,78,90,139,152,165,179,193,204,231,244},{0,2,3,4,5,6,7,8,9,10,11,12,24,64,91,114,127,140,153,166,194,205,217,245},{0,1,3,4,5,6,7,8,9,10,11,12,13,25,45,65,79,92,104,141,154,167,180,206,218,232,246},{0,1,2,4,5,6,7,8,9,10,11,12,15,27,38,55,94,129,196,208,249},{0,1,2,3,5,6,7,8,9,10,11,12,16,28,68,116,130,156,168,209,221,234,250},{0,1,2,3,4,6,7,8,9,10,11,12,17,29,47,69,80,131,157,169,183,197,222,235,251},{0,1,2,3,4,5,7,8,9,10,11,12,30,56,70,95,106,117,143,223,252},{0,1,2,3,4,5,6,8,9,10,11,12,18,31,39,71,81,96,107,144,170,184,224},{0,1,2,3,4,5,6,7,9,10,11,12,33,40,57,72,83,108,119,145,158,172,198,210,225,237,253},{0,1,2,3,4,5,6,7,8,10,11,12,20,49,58,84,109,120,159,173,186,199,211,254},{0,1,2,3,4,5,6,7,8,9,11,12,59,99,123,135,148,161,189,257},{0,1,2,3,4,5,6,7,8,9,10,12,42,51,60,75,88,100,111,124,136,149,176,202,228,240,258},{0,1,2,3,4,5,6,7,8,9,10,11,35,43,61,76,101,112,137,150,162,177,190,214,241},{2,14,15,16,17,18,19,20,21,22,25,45,65,79,92,104,141,154,167,180,206,218,232,246},{13,15,16,17,18,19,20,21,22,36,54,66,93,115,128,181,207,219,233,247},{3,13,14,16,17,18,19,20,21,22,27,38,55,94,129,196,208,249},{4,13,14,15,17,18,19,20,21,22,28,68,116,130,156,168,209,221,234,250},{5,13,14,15,16,18,19,20,21,22,29,47,69,80,131,157,169,183,197,222,235,251},{7,13,14,15,16,17,19,20,21,22,31,39,71,81,96,107,144,170,184,224},{13,14,15,16,17,18,20,21,22,32,48,82,97,118,132,171,185,236},{9,13,14,15,16,17,18,19,21,22,49,58,84,109,120,159,173,186,199,211,254},{13,14,15,16,17,18,19,20,22,86,98,134,160,175,201,212,227,239,256},{13,14,15,16,17,18,19,20,21,34,50,74,87,110,122,147,188,213},{0,24,25,26,27,28,29,30,31,32,33,34,35,53,78,90,139,152,165,179,193,204,231,244},{1,23,25,26,27,28,29,30,31,32,33,34,35,64,91,114,127,140,153,166,194,205,217,245},{2,13,23,24,26,27,28,29,30,31,32,33,34,35,45,65,79,92,104,141,154,167,180,206,218,232,246},{23,24,25,27,28,29,30,31,32,33,34,35,37,46,67,105,142,155,182,195,220,248},{3,15,23,24,25,26,28,29,30,31,32,33,34,35,38,55,94,129,196,208,249},{4,16,23,24,25,26,27,29,30,31,32,33,34,35,68,116,130,156,168,209,221,234,250},{5,17,23,24,25,26,27,28,30,31,32,33,34,35,47,69,80,131,157,169,183,197,222,235,251},{6,23,24,25,26,27,28,29,31,32,33,34,35,56,70,95,106,117,143,223,252},{7,18,23,24,25,26,27,28,29,30,32,33,34,35,39,71,81,96,107,144,170,184,224},{19,23,24,25,26,27,28,29,30,31,33,34,35,48,82,97,118,132,171,185,236},{8,23,24,25,26,27,28,29,30,31,32,34,35,40,57,72,83,108,119,145,158,172,198,210,225,237,253},{22,23,24,25,26,27,28,29,30,31,32,33,35,50,74,87,110,122,147,188,213},{12,23,24,25,26,27,28,29,30,31,32,33,34,43,61,76,101,112,137,150,162,177,190,214,241},{14,37,38,39,40,41,42,43,44,54,66,93,115,128,181,207,219,233,247},{26,36,38,39,40,41,42,43,44,46,67,105,142,155,182,195,220,248},{3,15,27,36,37,39,40,41,42,43,44,55,94,129,196,208,249},{7,18,31,36,37,38,40,41,42,43,44,71,81,96,107,144,170,184,224},{8,33,36,37,38,39,41,42,43,44,57,72,83,108,119,145,158,172,198,210,225,237,253},{36,37,38,39,40,42,43,44,73,85,121,133,146,174,187,200,226,238,255},{11,36,37,38,39,40,41,43,44,51,60,75,88,100,111,124,136,149,176,202,228,240,258},{12,35,36,37,38,39,40,41,42,44,61,76,101,112,137,150,162,177,190,214,241},{36,37,38,39,40,41,42,43,62,89,102,125,151,163,191,203,215,229,242},{2,13,25,46,47,48,49,50,51,65,79,92,104,141,154,167,180,206,218,232,246},{26,37,45,47,48,49,50,51,67,105,142,155,182,195,220,248},{5,17,29,45,46,48,49,50,51,69,80,131,157,169,183,197,222,235,251},{19,32,45,46,47,49,50,51,82,97,118,132,171,185,236},{9,20,45,46,47,48,50,51,58,84,109,120,159,173,186,199,211,254},{22,34,45,46,47,48,49,51,74,87,110,122,147,188,213},{11,42,45,46,47,48,49,50,60,75,88,100,111,124,136,149,176,202,228,240,258},{53,54,55,56,57,58,59,60,61,62,63,77,103,113,126,138,164,178,192,216,230,243},{0,23,52,54,55,56,57,58,59,60,61,62,78,90,139,152,165,179,193,204,231,244},{14,36,52,53,55,56,57,58,59,60,61,62,66,93,115,128,181,207,219,233,247},{3,15,27,38,52,53,54,56,57,58,59,60,61,62,94,129,196,208,249},{6,30,52,53,54,55,57,58,59,60,61,62,70,95,106,117,143,223,252},{8,33,40,52,53,54,55,56,58,59,60,61,62,72,83,108,119,145,158,172,198,210,225,237,253},{9,20,49,52,53,54,55,56,57,59,60,61,62,84,109,120,159,173,186,199,211,254},{10,52,53,54,55,56,57,58,60,61,62,99,123,135,148,161,189,257},{11,42,51,52,53,54,55,56,57,58,59,61,62,75,88,100,111,124,136,149,176,202,228,240,258},{12,35,43,52,53,54,55,56,57,58,59,60,62,76,101,112,137,150,162,177,190,214,241},{44,52,53,54,55,56,57,58,59,60,61,89,102,125,151,163,191,203,215,229,242},{52,64,65,66,67,68,69,70,71,72,73,74,75,76,77,103,113,126,138,164,178,192,216,230,243},{1,24,63,65,66,67,68,69,70,71,72,73,74,75,76,91,114,127,140,153,166,194,205,217,245},{2,13,25,45,63,64,66,67,68,69,70,71,72,73,74,75,76,79,92,104,141,154,167,180,206,218,232,246},{14,36,54,63,64,65,67,68,69,70,71,72,73,74,75,76,93,115,128,181,207,219,233,247},{26,37,46,63,64,65,66,68,69,70,71,72,73,74,75,76,105,142,155,182,195,220,248},{4,16,28,63,64,65,66,67,69,70,71,72,73,74,75,76,116,130,156,168,209,221,234,250},{5,17,29,47,63,64,65,66,67,68,70,71,72,73,74,75,76,80,131,157,169,183,197,222,235,251},{6,30,56,63,64,65,66,67,68,69,71,72,73,74,75,76,95,106,117,143,223,252},{7,18,31,39,63,64,65,66,67,68,69,70,72,73,74,75,76,81,96,107,144,170,184,224},{8,33,40,57,63,64,65,66,67,68,69,70,71,73,74,75,76,83,108,119,145,158,172,198,210,225,237,253},{41,63,64,65,66,67,68,69,70,71,72,74,75,76,85,121,133,146,174,187,200,226,238,255},{22,34,50,63,64,65,66,67,68,69,70,71,72,73,75,76,87,110,122,147,188,213},{11,42,51,60,63,64,65,66,67,68,69,70,71,72,73,74,76,88,100,111,124,136,149,176,202,228,240,258},{12,35,43,61,63,64,65,66,67,68,69,70,71,72,73,74,75,101,112,137,150,162,177,190,214,241},{52,63,78,79,80,81,82,83,84,85,86,87,88,89,103,113,126,138,164,178,192,216,230,243},{0,23,53,77,79,80,81,82,83,84,85,86,87,88,89,90,139,152,165,179,193,204,231,244},{2,13,25,45,65,77,78,80,81,82,83,84,85,86,87,88,89,92,104,141,154,167,180,206,218,232,246},{5,17,29,47,69,77,78,79,81,82,83,84,85,86,87,88,89,131,157,169,183,197,222,235,251},{7,18,31,39,71,77,78,79,80,82,83,84,85,86,87,88,89,96,107,144,170,184,224},{19,32,48,77,78,79,80,81,83,84,85,86,87,88,89,97,118,132,171,185,236},{8,33,40,57,72,77,78,79,80,81,82,84,85,86,87,88,89,108,119,145,158,172,198,210,225,237,253},{9,20,49,58,77,78,79,80,81,82,83,85,86,87,88,89,109,120,159,173,186,199,211,254},{41,73,77,78,79,80,81,82,83,84,86,87,88,89,121,133,146,174,187,200,226,238,255},{21,77,78,79,80,81,82,83,84,85,87,88,89,98,134,160,175,201,212,227,239,256},{22,34,50,74,77,78,79,80,81,82,83,84,85,86,88,89,110,122,147,188,213},{11,42,51,60,75,77,78,79,80,81,82,83,84,85,86,87,89,100,111,124,136,149,176,202,228,240,258},{44,62,77,78,79,80,81,82,83,84,85,86,87,88,102,125,151,163,191,203,215,229,242},{0,23,53,78,91,92,93,94,95,96,97,98,99,100,101,102,139,152,165,179,193,204,231,244},{1,24,64,90,92,93,94,95,96,97,98,99,100,101,102,114,127,140,153,166,194,205,217,245},{2,13,25,45,65,79,90,91,93,94,95,96,97,98,99,100,101,102,104,141,154,167,180,206,218,232,246},{14,36,54,66,90,91,92,94,95,96,97,98,99,100,101,102,115,128,181,207,219,233,247},{3,15,27,38,55,90,91,92,93,95,96,97,98,99,100,101,102,129,196,208,249},{6,30,56,70,90,91,92,93,94,96,97,98,99,100,101,102,106,117,143,223,252},{7,18,31,39,71,81,90,91,92,93,94,95,97,98,99,100,101,102,107,144,170,184,224},{19,32,48,82,90,91,92,93,94,95,96,98,99,100,101,102,118,132,171,185,236},{21,86,90,91,92,93,94,95,96,97,99,100,101,102,134,160,175,201,212,227,239,256},{10,59,90,91,92,93,94,95,96,97,98,100,101,102,123,135,148,161,189,257},{11,42,51,60,75,88,90,91,92,93,94,95,96,97,98,99,101,102,111,124,136,149,176,202,228,240,258},{12,35,43,61,76,90,91,92,93,94,95,96,97,98,99,100,102,112,137,150,162,177,190,214,241},{44,62,89,90,91,92,93,94,95,96,97,98,99,100,101,125,151,163,191,203,215,229,242},{52,63,77,104,105,106,107,108,109,110,111,112,113,126,138,164,178,192,216,230,243},{2,13,25,45,65,79,92,103,105,106,107,108,109,110,111,112,141,154,167,180,206,218,232,246},{26,37,46,67,103,104,106,107,108,109,110,111,112,142,155,182,195,220,248},{6,30,56,70,95,103,104,105,107,108,109,110,111,112,117,143,223,252},{7,18,31,39,71,81,96,103,104,105,106,108,109,110,111,112,144,170,184,224},{8,33,40,57,72,83,103,104,105,106,107,109,110,111,112,119,145,158,172,198,210,225,237,253},{9,20,49,58,84,103,104,105,106,107,108,110,111,112,120,159,173,186,199,211,254},{22,34,50,74,87,103,104,105,106,107,108,109,111,112,122,147,188,213},{11,42,51,60,75,88,100,103,104,105,106,107,108,109,110,112,124,136,149,176,202,228,240,258},{12,35,43,61,76,101,103,104,105,106,107,108,109,110,111,137,150,162,177,190,214,241},{52,63,77,103,114,115,116,117,118,119,120,121,122,123,124,125,126,138,164,178,192,216,230,243},{1,24,64,91,113,115,116,117,118,119,120,121,122,123,124,125,127,140,153,166,194,205,217,245},{14,36,54,66,93,113,114,116,117,118,119,120,121,122,123,124,125,128,181,207,219,233,247},{4,16,28,68,113,114,115,117,118,119,120,121,122,123,124,125,130,156,168,209,221,234,250},{6,30,56,70,95,106,113,114,115,116,118,119,120,121,122,123,124,125,143,223,252},{19,32,48,82,97,113,114,115,116,117,119,120,121,122,123,124,125,132,171,185,236},{8,33,40,57,72,83,108,113,114,115,116,117,118,120,121,122,123,124,125,145,158,172,198,210,225,237,253},{9,20,49,58,84,109,113,114,115,116,117,118,119,121,122,123,124,125,159,173,186,199,211,254},{41,73,85,113,114,115,116,117,118,119,120,122,123,124,125,133,146,174,187,200,226,238,255},{22,34,50,74,87,110,113,114,115,116,117,118,119,120,121,123,124,125,147,188,213},{10,59,99,113,114,115,116,117,118,119,120,121,122,124,125,135,148,161,189,257},{11,42,51,60,75,88,100,111,113,114,115,116,117,118,119,120,121,122,123,125,136,149,176,202,228,240,258},{44,62,89,102,113,114,115,116,117,118,119,120,121,122,123,124,151,163,191,203,215,229,242},{52,63,77,103,113,127,128,129,130,131,132,133,134,135,136,137,138,164,178,192,216,230,243},{1,24,64,91,114,126,128,129,130,131,132,133,134,135,136,137,140,153,166,194,205,217,245},{14,36,54,66,93,115,126,127,129,130,131,132,133,134,135,136,137,181,207,219,233,247},{3,15,27,38,55,94,126,127,128,130,131,132,133,134,135,136,137,196,208,249},{4,16,28,68,116,126,127,128,129,131,132,133,134,135,136,137,156,168,209,221,234,250},{5,17,29,47,69,80,126,127,128,129,130,132,133,134,135,136,137,157,169,183,197,222,235,251},{19,32,48,82,97,118,126,127,128,129,130,131,133,134,135,136,137,171,185,236},{41,73,85,121,126,127,128,129,130,131,132,134,135,136,137,146,174,187,200,226,238,255},{21,86,98,126,127,128,129,130,131,132,133,135,136,137,160,175,201,212,227,239,256},{10,59,99,123,126,127,128,129,130,131,132,133,134,136,137,148,161,189,257},{11,42,51,60,75,88,100,111,124,126,127,128,129,130,131,132,133,134,135,137,149,176,202,228,240,258},{12,35,43,61,76,101,112,126,127,128,129,130,131,132,133,134,135,136,150,162,177,190,214,241},{52,63,77,103,113,126,139,140,141,142,143,144,145,146,147,148,149,150,151,164,178,192,216,230,243},{0,23,53,78,90,138,140,141,142,143,144,145,146,147,148,149,150,151,152,165,179,193,204,231,244},{1,24,64,91,114,127,138,139,141,142,143,144,145,146,147,148,149,150,151,153,166,194,205,217,245},{2,13,25,45,65,79,92,104,138,139,140,142,143,144,145,146,147,148,149,150,151,154,167,180,206,218,232,246},{26,37,46,67,105,138,139,140,141,143,144,145,146,147,148,149,150,151,155,182,195,220,248},{6,30,56,70,95,106,117,138,139,140,141,142,144,145,146,147,148,149,150,151,223,252},{7,18,31,39,71,81,96,107,138,139,140,141,142,143,145,146,147,148,149,150,151,170,184,224},{8,33,40,57,72,83,108,119,138,139,140,141,142,143,144,146,147,148,149,150,151,158,172,198,210,225,237,253},{41,73,85,121,133,138,139,140,141,142,143,144,145,147,148,149,150,151,174,187,200,226,238,255},{22,34,50,74,87,110,122,138,139,140,141,142,143,144,145,146,148,149,150,151,188,213},{10,59,99,123,135,138,139,140,141,142,143,144,145,146,147,149,150,151,161,189,257},{11,42,51,60,75,88,100,111,124,136,138,139,140,141,142,143,144,145,146,147,148,150,151,176,202,228,240,258},{12,35,43,61,76,101,112,137,138,139,140,141,142,143,144,145,146,147,148,149,151,162,177,190,214,241},{44,62,89,102,125,138,139,140,141,142,143,144,145,146,147,148,149,150,163,191,203,215,229,242},{0,23,53,78,90,139,153,154,155,156,157,158,159,160,161,162,163,165,179,193,204,231,244},{1,24,64,91,114,127,140,152,154,155,156,157,158,159,160,161,162,163,166,194,205,217,245},{2,13,25,45,65,79,92,104,141,152,153,155,156,157,158,159,160,161,162,163,167,180,206,218,232,246},{26,37,46,67,105,142,152,153,154,156,157,158,159,160,161,162,163,182,195,220,248},{4,16,28,68,116,130,152,153,154,155,157,158,159,160,161,162,163,168,209,221,234,250},{5,17,29,47,69,80,131,152,153,154,155,156,158,159,160,161,162,163,169,183,197,222,235,251},{8,33,40,57,72,83,108,119,145,152,153,154,155,156,157,159,160,161,162,163,172,198,210,225,237,253},{9,20,49,58,84,109,120,152,153,154,155,156,157,158,160,161,162,163,173,186,199,211,254},{21,86,98,134,152,153,154,155,156,157,158,159,161,162,163,175,201,212,227,239,256},{10,59,99,123,135,148,152,153,154,155,156,157,158,159,160,162,163,189,257},{12,35,43,61,76,101,112,137,150,152,153,154,155,156,157,158,159,160,161,163,177,190,214,241},{44,62,89,102,125,151,152,153,154,155,156,157,158,159,160,161,162,191,203,215,229,242},{52,63,77,103,113,126,138,165,166,167,168,169,170,171,172,173,174,175,176,177,178,192,216,230,243},{0,23,53,78,90,139,152,164,166,167,168,169,170,171,172,173,174,175,176,177,179,193,204,231,244},{1,24,64,91,114,127,140,153,164,165,167,168,169,170,171,172,173,174,175,176,177,194,205,217,245},{2,13,25,45,65,79,92,104,141,154,164,165,166,168,169,170,171,172,173,174,175,176,177,180,206,218,232,246},{4,16,28,68,116,130,156,164,165,166,167,169,170,171,172,173,174,175,176,177,209,221,234,250},{5,17,29,47,69,80,131,157,164,165,166,167,168,170,171,172,173,174,175,176,177,183,197,222,235,251},{7,18,31,39,71,81,96,107,144,164,165,166,167,168,169,171,172,173,174,175,176,177,184,224},{19,32,48,82,97,118,132,164,165,166,167,168,169,170,172,173,174,175,176,177,185,236},{8,33,40,57,72,83,108,119,145,158,164,165,166,167,168,169,170,171,173,174,175,176,177,198,210,225,237,253},{9,20,49,58,84,109,120,159,164,165,166,167,168,169,170,171,172,174,175,176,177,186,199,211,254},{41,73,85,121,133,146,164,165,166,167,168,169,170,171,172,173,175,176,177,187,200,226,238,255},{21,86,98,134,160,164,165,166,167,168,169,170,171,172,173,174,176,177,201,212,227,239,256},{11,42,51,60,75,88,100,111,124,136,149,164,165,166,167,168,169,170,171,172,173,174,175,177,202,228,240,258},{12,35,43,61,76,101,112,137,150,162,164,165,166,167,168,169,170,171,172,173,174,175,176,190,214,241},{52,63,77,103,113,126,138,164,179,180,181,182,183,184,185,186,187,188,189,190,191,192,216,230,243},{0,23,53,78,90,139,152,165,178,180,181,182,183,184,185,186,187,188,189,190,191,193,204,231,244},{2,13,25,45,65,79,92,104,141,154,167,178,179,181,182,183,184,185,186,187,188,189,190,191,206,218,232,246},{14,36,54,66,93,115,128,178,179,180,182,183,184,185,186,187,188,189,190,191,207,219,233,247},{26,37,46,67,105,142,155,178,179,180,181,183,184,185,186,187,188,189,190,191,195,220,248},{5,17,29,47,69,80,131,157,169,178,179,180,181,182,184,185,186,187,188,189,190,191,197,222,235,251},{7,18,31,39,71,81,96,107,144,170,178,179,180,181,182,183,185,186,187,188,189,190,191,224},{19,32,48,82,97,118,132,171,178,179,180,181,182,183,184,186,187,188,189,190,191,236},{9,20,49,58,84,109,120,159,173,178,179,180,181,182,183,184,185,187,188,189,190,191,199,211,254},{41,73,85,121,133,146,174,178,179,180,181,182,183,184,185,186,188,189,190,191,200,226,238,255},{22,34,50,74,87,110,122,147,178,179,180,181,182,183,184,185,186,187,189,190,191,213},{10,59,99,123,135,148,161,178,179,180,181,182,183,184,185,186,187,188,190,191,257},{12,35,43,61,76,101,112,137,150,162,177,178,179,180,181,182,183,184,185,186,187,188,189,191,214,241},{44,62,89,102,125,151,163,178,179,180,181,182,183,184,185,186,187,188,189,190,203,215,229,242},{52,63,77,103,113,126,138,164,178,193,194,195,196,197,198,199,200,201,202,203,216,230,243},{0,23,53,78,90,139,152,165,179,192,194,195,196,197,198,199,200,201,202,203,204,231,244},{1,24,64,91,114,127,140,153,166,192,193,195,196,197,198,199,200,201,202,203,205,217,245},{26,37,46,67,105,142,155,182,192,193,194,196,197,198,199,200,201,202,203,220,248},{3,15,27,38,55,94,129,192,193,194,195,197,198,199,200,201,202,203,208,249},{5,17,29,47,69,80,131,157,169,183,192,193,194,195,196,198,199,200,201,202,203,222,235,251},{8,33,40,57,72,83,108,119,145,158,172,192,193,194,195,196,197,199,200,201,202,203,210,225,237,253},{9,20,49,58,84,109,120,159,173,186,192,193,194,195,196,197,198,200,201,202,203,211,254},{41,73,85,121,133,146,174,187,192,193,194,195,196,197,198,199,201,202,203,226,238,255},{21,86,98,134,160,175,192,193,194,195,196,197,198,199,200,202,203,212,227,239,256},{11,42,51,60,75,88,100,111,124,136,149,176,192,193,194,195,196,197,198,199,200,201,203,228,240,258},{44,62,89,102,125,151,163,191,192,193,194,195,196,197,198,199,200,201,202,215,229,242},{0,23,53,78,90,139,152,165,179,193,205,206,207,208,209,210,211,212,213,214,215,231,244},{1,24,64,91,114,127,140,153,166,194,204,206,207,208,209,210,211,212,213,214,215,217,245},{2,13,25,45,65,79,92,104,141,154,167,180,204,205,207,208,209,210,211,212,213,214,215,218,232,246},{14,36,54,66,93,115,128,181,204,205,206,208,209,210,211,212,213,214,215,219,233,247},{3,15,27,38,55,94,129,196,204,205,206,207,209,210,211,212,213,214,215,249},{4,16,28,68,116,130,156,168,204,205,206,207,208,210,211,212,213,214,215,221,234,250},{8,33,40,57,72,83,108,119,145,158,172,198,204,205,206,207,208,209,211,212,213,214,215,225,237,253},{9,20,49,58,84,109,120,159,173,186,199,204,205,206,207,208,209,210,212,213,214,215,254},{21,86,98,134,160,175,201,204,205,206,207,208,209,210,211,213,214,215,227,239,256},{22,34,50,74,87,110,122,147,188,204,205,206,207,208,209,210,211,212,214,215},{12,35,43,61,76,101,112,137,150,162,177,190,204,205,206,207,208,209,210,211,212,213,215,241},{44,62,89,102,125,151,163,191,203,204,205,206,207,208,209,210,211,212,213,214,229,242},{52,63,77,103,113,126,138,164,178,192,217,218,219,220,221,222,223,224,225,226,227,228,229,230,243},{1,24,64,91,114,127,140,153,166,194,205,216,218,219,220,221,222,223,224,225,226,227,228,229,245},{2,13,25,45,65,79,92,104,141,154,167,180,206,216,217,219,220,221,222,223,224,225,226,227,228,229,232,246},{14,36,54,66,93,115,128,181,207,216,217,218,220,221,222,223,224,225,226,227,228,229,233,247},{26,37,46,67,105,142,155,182,195,216,217,218,219,221,222,223,224,225,226,227,228,229,248},{4,16,28,68,116,130,156,168,209,216,217,218,219,220,222,223,224,225,226,227,228,229,234,250},{5,17,29,47,69,80,131,157,169,183,197,216,217,218,219,220,221,223,224,225,226,227,228,229,235,251},{6,30,56,70,95,106,117,143,216,217,218,219,220,221,222,224,225,226,227,228,229,252},{7,18,31,39,71,81,96,107,144,170,184,216,217,218,219,220,221,222,223,225,226,227,228,229},{8,33,40,57,72,83,108,119,145,158,172,198,210,216,217,218,219,220,221,222,223,224,226,227,228,229,237,253},{41,73,85,121,133,146,174,187,200,216,217,218,219,220,221,222,223,224,225,227,228,229,238,255},{21,86,98,134,160,175,201,212,216,217,218,219,220,221,222,223,224,225,226,228,229,239,256},{11,42,51,60,75,88,100,111,124,136,149,176,202,216,217,218,219,220,221,222,223,224,225,226,227,229,240,258},{44,62,89,102,125,151,163,191,203,215,216,217,218,219,220,221,222,223,224,225,226,227,228,242},{52,63,77,103,113,126,138,164,178,192,216,231,232,233,234,235,236,237,238,239,240,241,242,243},{0,23,53,78,90,139,152,165,179,193,204,230,232,233,234,235,236,237,238,239,240,241,242,244},{2,13,25,45,65,79,92,104,141,154,167,180,206,218,230,231,233,234,235,236,237,238,239,240,241,242,246},{14,36,54,66,93,115,128,181,207,219,230,231,232,234,235,236,237,238,239,240,241,242,247},{4,16,28,68,116,130,156,168,209,221,230,231,232,233,235,236,237,238,239,240,241,242,250},{5,17,29,47,69,80,131,157,169,183,197,222,230,231,232,233,234,236,237,238,239,240,241,242,251},{19,32,48,82,97,118,132,171,185,230,231,232,233,234,235,237,238,239,240,241,242},{8,33,40,57,72,83,108,119,145,158,172,198,210,225,230,231,232,233,234,235,236,238,239,240,241,242,253},{41,73,85,121,133,146,174,187,200,226,230,231,232,233,234,235,236,237,239,240,241,242,255},{21,86,98,134,160,175,201,212,227,230,231,232,233,234,235,236,237,238,240,241,242,256},{11,42,51,60,75,88,100,111,124,136,149,176,202,228,230,231,232,233,234,235,236,237,238,239,241,242,258},{12,35,43,61,76,101,112,137,150,162,177,190,214,230,231,232,233,234,235,236,237,238,239,240,242},{44,62,89,102,125,151,163,191,203,215,229,230,231,232,233,234,235,236,237,238,239,240,241},{52,63,77,103,113,126,138,164,178,192,216,230,244,245,246,247,248,249,250,251,252,253,254,255,256,257,258},{0,23,53,78,90,139,152,165,179,193,204,231,243,245,246,247,248,249,250,251,252,253,254,255,256,257,258},{1,24,64,91,114,127,140,153,166,194,205,217,243,244,246,247,248,249,250,251,252,253,254,255,256,257,258},{2,13,25,45,65,79,92,104,141,154,167,180,206,218,232,243,244,245,247,248,249,250,251,252,253,254,255,256,257,258},{14,36,54,66,93,115,128,181,207,219,233,243,244,245,246,248,249,250,251,252,253,254,255,256,257,258},{26,37,46,67,105,142,155,182,195,220,243,244,245,246,247,249,250,251,252,253,254,255,256,257,258},{3,15,27,38,55,94,129,196,208,243,244,245,246,247,248,250,251,252,253,254,255,256,257,258},{4,16,28,68,116,130,156,168,209,221,234,243,244,245,246,247,248,249,251,252,253,254,255,256,257,258},{5,17,29,47,69,80,131,157,169,183,197,222,235,243,244,245,246,247,248,249,250,252,253,254,255,256,257,258},{6,30,56,70,95,106,117,143,223,243,244,245,246,247,248,249,250,251,253,254,255,256,257,258},{8,33,40,57,72,83,108,119,145,158,172,198,210,225,237,243,244,245,246,247,248,249,250,251,252,254,255,256,257,258},{9,20,49,58,84,109,120,159,173,186,199,211,243,244,245,246,247,248,249,250,251,252,253,255,256,257,258},{41,73,85,121,133,146,174,187,200,226,238,243,244,245,246,247,248,249,250,251,252,253,254,256,257,258},{21,86,98,134,160,175,201,212,227,239,243,244,245,246,247,248,249,250,251,252,253,254,255,257,258},{10,59,99,123,135,148,161,189,243,244,245,246,247,248,249,250,251,252,253,254,255,256,258},{11,42,51,60,75,88,100,111,124,136,149,176,202,228,240,243,244,245,246,247,248,249,250,251,252,253,254,255,256,257}];
weights=[236,672,258,396,210,682,694,273,243,698,627,255,363,663,509,686,661,655,284,498,423,338,431,580,301,290,467,538,606,238,289,304,375,228,511,295,284,330,479,616,257,213,308,539,205,363,400,591,388,465,576,672,650,222,608,378,347,607,355,613,655,486,630,299,285,552,300,559,227,501,442,611,321,420,300,310,639,537,437,205,373,665,683,229,295,484,265,376,535,387,494,241,402,540,492,683,325,429,464,264,638,488,507,587,589,646,350,493,662,213,586,374,534,226,285,566,257,669,380,219,633,432,542,598,212,629,246,543,290,622,424,288,268,445,306,266,640,531,464,377,209,487,398,616,408,609,236,411,319,322,248,626,683,516,424,636,510,543,288,538,367,412,323,541,445,201,275,684,305,359,558,344,252,275,278,640,250,219,557,341,680,373,324,417,342,432,350,300,493,272,460,676,307,643,366,701,526,475,347,570,607,322,667,697,559,501,587,457,282,576,212,608,664,390,290,606,438,524,206,373,625,268,618,553,630,228,400,349,662,303,324,312,560,644,451,258,257,373,282,605,622,461,633,570,217,548,515,207,393,294,330,642,561,333,432,403,619,446,412];
